src/problems/cvrp/data/train_data/train_case_15.vrp
NAME : case_14
TYPE : CVRP
DIMENSION : 5
EDGE_WEIGHT_TYPE : EUC_2D
CAPACITY : 30
NODE_COORD_SECTION
1 11 14
2 61 52
3 24 58
4 42 7
5 56 39
DEMAND_SECTION
1 0
2 10
3 7
4 13
5 19
DEPOT_SECTION
1
-1
EOF
VEHICLE : 2
