src/problems/tsp/data/train_data/train_case_15.tsp
NAME : case_5
TYPE : TSP
DIMENSION : 10
EDGE_WEIGHT_TYPE : EUC_2D
NODE_COORD_SECTION
 1  16  25
 2 188  93
 3 260  61
 4  32 113
 5  40 129
 6  72  49
 7 252 125
 8 268  97
 9 172  53
10 256 141
EOF
